4 6
1 2 30
1 4 4 
1 3 6
2 3 5
2 4 10
3 4 20
6 11
1 2 40
1 3 20
1 6 50
2 3 30
2 4 30
2 5 20
3 4 40
3 5 30
4 5 10
4 6 40
5 6 20
4 6
1 2 30
1 4 4 
1 3 6
2 3 5
2 4 10
3 4 20
6 11
1 2 40
1 3 20
1 6 50
2 3 30
2 4 30
2 5 20
3 4 40
3 5 30
4 5 10
4 6 40
5 6 20
4 6
1 2 30
1 4 4 
1 3 6
2 3 5
2 4 10
3 4 20
6 11
1 2 40
1 3 20
1 6 50
2 3 30
2 4 30
2 5 20
3 4 40
3 5 30
4 5 10
4 6 40
5 6 20
4 6
1 2 30
1 4 4 
1 3 6
2 3 5
2 4 10
3 4 20
6 11
1 2 40
1 3 20
1 6 50
2 3 30
2 4 30
2 5 20
3 4 40
3 5 30
4 5 10
4 6 40
5 6 20
4 6
1 2 30
1 4 4 
1 3 6
2 3 5
2 4 10
3 4 20
6 11
1 2 40
1 3 20
1 6 50
2 3 30
2 4 30
2 5 20
3 4 40
3 5 30
4 5 10
4 6 40
5 6 20
4 6
1 2 30
1 4 4 
1 3 6
2 3 5
2 4 10
3 4 20
6 11
1 2 40
1 3 20
1 6 50
2 3 30
2 4 30
2 5 20
3 4 40
3 5 30
4 5 10
4 6 40
5 6 20
4 6
1 2 30
1 4 4 
1 3 6
2 3 5
2 4 10
3 4 20
6 11
1 2 40
1 3 20
1 6 50
2 3 30
2 4 30
2 5 20
3 4 40
3 5 30
4 5 10
4 6 40
5 6 20
4 6
1 2 30
1 4 4 
1 3 6
2 3 5
2 4 10
3 4 20
6 11
1 2 40
1 3 20
1 6 50
2 3 30
2 4 30
2 5 20
3 4 40
3 5 30
4 5 10
4 6 40
5 6 20
4 6
1 2 30
1 4 4 
1 3 6
2 3 5
2 4 10
3 4 20
6 11
1 2 40
1 3 20
1 6 50
2 3 30
2 4 30
2 5 20
3 4 40
3 5 30
4 5 10
4 6 40
5 6 20
4 6
1 2 30
1 4 4 
1 3 6
2 3 5
2 4 10
3 4 20
6 11
1 2 40
1 3 20
1 6 50
2 3 30
2 4 30
2 5 20
3 4 40
3 5 30
4 5 10
4 6 40
5 6 20
4 6
1 2 30
1 4 4 
1 3 6
2 3 5
2 4 10
3 4 20
6 11
1 2 40
1 3 20
1 6 50
2 3 30
2 4 30
2 5 20
3 4 40
3 5 30
4 5 10
4 6 40
5 6 20
4 6
1 2 30
1 4 4 
1 3 6
2 3 5
2 4 10
3 4 20
6 11
1 2 40
1 3 20
1 6 50
2 3 30
2 4 30
2 5 20
3 4 40
3 5 30
4 5 10
4 6 40
5 6 20

4 6
1 2 30
1 4 4 
1 3 6
2 3 5
2 4 10
3 4 20
6 11
1 2 40
1 3 20
1 6 50
2 3 30
2 4 30
2 5 20
3 4 40
3 5 30
4 5 10
4 6 40
5 6 20
4 6
1 2 30
1 4 4 
1 3 6
2 3 5
2 4 10
3 4 20
6 11
1 2 40
1 3 20
1 6 50
2 3 30
2 4 30
2 5 20
3 4 40
3 5 30
4 5 10
4 6 40
5 6 20
4 6
1 2 30
1 4 4 
1 3 6
2 3 5
2 4 10
3 4 20
6 11
1 2 40
1 3 20
1 6 50
2 3 30
2 4 30
2 5 20
3 4 40
3 5 30
4 5 10
4 6 40
5 6 20
4 6
1 2 30
1 4 4 
1 3 6
2 3 5
2 4 10
3 4 20
6 11
1 2 40
1 3 20
1 6 50
2 3 30
2 4 30
2 5 20
3 4 40
3 5 30
4 5 10
4 6 40
5 6 20
4 6
1 2 30
1 4 4 
1 3 6
2 3 5
2 4 10
3 4 20
6 11
1 2 40
1 3 20
1 6 50
2 3 30
2 4 30
2 5 20
3 4 40
3 5 30
4 5 10
4 6 40
5 6 20
4 6
1 2 30
1 4 4 
1 3 6
2 3 5
2 4 10
3 4 20
6 11
1 2 40
1 3 20
1 6 50
2 3 30
2 4 30
2 5 20
3 4 40
3 5 30
4 5 10
4 6 40
5 6 20

4 6
1 2 30
1 4 4 
1 3 6
2 3 5
2 4 10
3 4 20
6 11
1 2 40
1 3 20
1 6 50
2 3 30
2 4 30
2 5 20
3 4 40
3 5 30
4 5 10
4 6 40
5 6 20
4 6
1 2 30
1 4 4 
1 3 6
2 3 5
2 4 10
3 4 20
6 11
1 2 40
1 3 20
1 6 50
2 3 30
2 4 30
2 5 20
3 4 40
3 5 30
4 5 10
4 6 40
5 6 20
4 6
1 2 30
1 4 4 
1 3 6
2 3 5
2 4 10
3 4 20
6 11
1 2 40
1 3 20
1 6 50
2 3 30
2 4 30
2 5 20
3 4 40
3 5 30
4 5 10
4 6 40
5 6 20
4 6
1 2 30
1 4 4 
1 3 6
2 3 5
2 4 10
3 4 20
6 11
1 2 40
1 3 20
1 6 50
2 3 30
2 4 30
2 5 20
3 4 40
3 5 30
4 5 10
4 6 40
5 6 20
4 6
1 2 30
1 4 4 
1 3 6
2 3 5
2 4 10
3 4 20
6 11
1 2 40
1 3 20
1 6 50
2 3 30
2 4 30
2 5 20
3 4 40
3 5 30
4 5 10
4 6 40
5 6 20
4 6
1 2 30
1 4 4 
1 3 6
2 3 5
2 4 10
3 4 20
6 11
1 2 40
1 3 20
1 6 50
2 3 30
2 4 30
2 5 20
3 4 40
3 5 30
4 5 10
4 6 40
5 6 20

4 6
1 2 30
1 4 4 
1 3 6
2 3 5
2 4 10
3 4 20
6 11
1 2 40
1 3 20
1 6 50
2 3 30
2 4 30
2 5 20
3 4 40
3 5 30
4 5 10
4 6 40
5 6 20
4 6
1 2 30
1 4 4 
1 3 6
2 3 5
2 4 10
3 4 20
6 11
1 2 40
1 3 20
1 6 50
2 3 30
2 4 30
2 5 20
3 4 40
3 5 30
4 5 10
4 6 40
5 6 20
4 6
1 2 30
1 4 4 
1 3 6
2 3 5
2 4 10
3 4 20
6 11
1 2 40
1 3 20
1 6 50
2 3 30
2 4 30
2 5 20
3 4 40
3 5 30
4 5 10
4 6 40
5 6 20
4 6
1 2 30
1 4 4 
1 3 6
2 3 5
2 4 10
3 4 20
6 11
1 2 40
1 3 20
1 6 50
2 3 30
2 4 30
2 5 20
3 4 40
3 5 30
4 5 10
4 6 40
5 6 20
4 6
1 2 30
1 4 4 
1 3 6
2 3 5
2 4 10
3 4 20
6 11
1 2 40
1 3 20
1 6 50
2 3 30
2 4 30
2 5 20
3 4 40
3 5 30
4 5 10
4 6 40
5 6 20
4 6
1 2 30
1 4 4 
1 3 6
2 3 5
2 4 10
3 4 20
6 11
1 2 40
1 3 20
1 6 50
2 3 30
2 4 30
2 5 20
3 4 40
3 5 30
4 5 10
4 6 40
5 6 20

4 6
1 2 30
1 4 4 
1 3 6
2 3 5
2 4 10
3 4 20
6 11
1 2 40
1 3 20
1 6 50
2 3 30
2 4 30
2 5 20
3 4 40
3 5 30
4 5 10
4 6 40
5 6 20
4 6
1 2 30
1 4 4 
1 3 6
2 3 5
2 4 10
3 4 20
6 11
1 2 40
1 3 20
1 6 50
2 3 30
2 4 30
2 5 20
3 4 40
3 5 30
4 5 10
4 6 40
5 6 20
4 6
1 2 30
1 4 4 
1 3 6
2 3 5
2 4 10
3 4 20
6 11
1 2 40
1 3 20
1 6 50
2 3 30
2 4 30
2 5 20
3 4 40
3 5 30
4 5 10
4 6 40
5 6 20
4 6
1 2 30
1 4 4 
1 3 6
2 3 5
2 4 10
3 4 20
6 11
1 2 40
1 3 20
1 6 50
2 3 30
2 4 30
2 5 20
3 4 40
3 5 30
4 5 10
4 6 40
5 6 20
4 6
1 2 30
1 4 4 
1 3 6
2 3 5
2 4 10
3 4 20
6 11
1 2 40
1 3 20
1 6 50
2 3 30
2 4 30
2 5 20
3 4 40
3 5 30
4 5 10
4 6 40
5 6 20
4 6
1 2 30
1 4 4 
1 3 6
2 3 5
2 4 10
3 4 20
6 11
1 2 40
1 3 20
1 6 50
2 3 30
2 4 30
2 5 20
3 4 40
3 5 30
4 5 10
4 6 40
5 6 20

4 6
1 2 30
1 4 4 
1 3 6
2 3 5
2 4 10
3 4 20
6 11
1 2 40
1 3 20
1 6 50
2 3 30
2 4 30
2 5 20
3 4 40
3 5 30
4 5 10
4 6 40
5 6 20
4 6
1 2 30
1 4 4 
1 3 6
2 3 5
2 4 10
3 4 20
6 11
1 2 40
1 3 20
1 6 50
2 3 30
2 4 30
2 5 20
3 4 40
3 5 30
4 5 10
4 6 40
5 6 20
4 6
1 2 30
1 4 4 
1 3 6
2 3 5
2 4 10
3 4 20
6 11
1 2 40
1 3 20
1 6 50
2 3 30
2 4 30
2 5 20
3 4 40
3 5 30
4 5 10
4 6 40
5 6 20
4 6
1 2 30
1 4 4 
1 3 6
2 3 5
2 4 10
3 4 20
6 11
1 2 40
1 3 20
1 6 50
2 3 30
2 4 30
2 5 20
3 4 40
3 5 30
4 5 10
4 6 40
5 6 20
4 6
1 2 30
1 4 4 
1 3 6
2 3 5
2 4 10
3 4 20
6 11
1 2 40
1 3 20
1 6 50
2 3 30
2 4 30
2 5 20
3 4 40
3 5 30
4 5 10
4 6 40
5 6 20
4 6
1 2 30
1 4 4 
1 3 6
2 3 5
2 4 10
3 4 20
6 11
1 2 40
1 3 20
1 6 50
2 3 30
2 4 30
2 5 20
3 4 40
3 5 30
4 5 10
4 6 40
5 6 20

4 6
1 2 30
1 4 4 
1 3 6
2 3 5
2 4 10
3 4 20
6 11
1 2 40
1 3 20
1 6 50
2 3 30
2 4 30
2 5 20
3 4 40
3 5 30
4 5 10
4 6 40
5 6 20
4 6
1 2 30
1 4 4 
1 3 6
2 3 5
2 4 10
3 4 20
6 11
1 2 40
1 3 20
1 6 50
2 3 30
2 4 30
2 5 20
3 4 40
3 5 30
4 5 10
4 6 40
5 6 20
4 6
1 2 30
1 4 4 
1 3 6
2 3 5
2 4 10
3 4 20
6 11
1 2 40
1 3 20
1 6 50
2 3 30
2 4 30
2 5 20
3 4 40
3 5 30
4 5 10
4 6 40
5 6 20
4 6
1 2 30
1 4 4 
1 3 6
2 3 5
2 4 10
3 4 20
6 11
1 2 40
1 3 20
1 6 50
2 3 30
2 4 30
2 5 20
3 4 40
3 5 30
4 5 10
4 6 40
5 6 20
4 6
1 2 30
1 4 4 
1 3 6
2 3 5
2 4 10
3 4 20
6 11
1 2 40
1 3 20
1 6 50
2 3 30
2 4 30
2 5 20
3 4 40
3 5 30
4 5 10
4 6 40
5 6 20
4 6
1 2 30
1 4 4 
1 3 6
2 3 5
2 4 10
3 4 20
6 11
1 2 40
1 3 20
1 6 50
2 3 30
2 4 30
2 5 20
3 4 40
3 5 30
4 5 10
4 6 40
5 6 20

4 6
1 2 30
1 4 4 
1 3 6
2 3 5
2 4 10
3 4 20
6 11
1 2 40
1 3 20
1 6 50
2 3 30
2 4 30
2 5 20
3 4 40
3 5 30
4 5 10
4 6 40
5 6 20
4 6
1 2 30
1 4 4 
1 3 6
2 3 5
2 4 10
3 4 20
6 11
1 2 40
1 3 20
1 6 50
2 3 30
2 4 30
2 5 20
3 4 40
3 5 30
4 5 10
4 6 40
5 6 20
4 6
1 2 30
1 4 4 
1 3 6
2 3 5
2 4 10
3 4 20
6 11
1 2 40
1 3 20
1 6 50
2 3 30
2 4 30
2 5 20
3 4 40
3 5 30
4 5 10
4 6 40
5 6 20
4 6
1 2 30
1 4 4 
1 3 6
2 3 5
2 4 10
3 4 20
6 11
1 2 40
1 3 20
1 6 50
2 3 30
2 4 30
2 5 20
3 4 40
3 5 30
4 5 10
4 6 40
5 6 20
4 6
1 2 30
1 4 4 
1 3 6
2 3 5
2 4 10
3 4 20
6 11
1 2 40
1 3 20
1 6 50
2 3 30
2 4 30
2 5 20
3 4 40
3 5 30
4 5 10
4 6 40
5 6 20
4 6
1 2 30
1 4 4 
1 3 6
2 3 5
2 4 10
3 4 20
6 11
1 2 40
1 3 20
1 6 50
2 3 30
2 4 30
2 5 20
3 4 40
3 5 30
4 5 10
4 6 40
5 6 20

4 6
1 2 30
1 4 4 
1 3 6
2 3 5
2 4 10
3 4 20
6 11
1 2 40
1 3 20
1 6 50
2 3 30
2 4 30
2 5 20
3 4 40
3 5 30
4 5 10
4 6 40
5 6 20
4 6
1 2 30
1 4 4 
1 3 6
2 3 5
2 4 10
3 4 20
6 11
1 2 40
1 3 20
1 6 50
2 3 30
2 4 30
2 5 20
3 4 40
3 5 30
4 5 10
4 6 40
5 6 20
4 6
1 2 30
1 4 4 
1 3 6
2 3 5
2 4 10
3 4 20
6 11
1 2 40
1 3 20
1 6 50
2 3 30
2 4 30
2 5 20
3 4 40
3 5 30
4 5 10
4 6 40
5 6 20
4 6
1 2 30
1 4 4 
1 3 6
2 3 5
2 4 10
3 4 20
6 11
1 2 40
1 3 20
1 6 50
2 3 30
2 4 30
2 5 20
3 4 40
3 5 30
4 5 10
4 6 40
5 6 20
4 6
1 2 30
1 4 4 
1 3 6
2 3 5
2 4 10
3 4 20
6 11
1 2 40
1 3 20
1 6 50
2 3 30
2 4 30
2 5 20
3 4 40
3 5 30
4 5 10
4 6 40
5 6 20
4 6
1 2 30
1 4 4 
1 3 6
2 3 5
2 4 10
3 4 20
6 11
1 2 40
1 3 20
1 6 50
2 3 30
2 4 30
2 5 20
3 4 40
3 5 30
4 5 10
4 6 40
5 6 20

4 6
1 2 30
1 4 4 
1 3 6
2 3 5
2 4 10
3 4 20
6 11
1 2 40
1 3 20
1 6 50
2 3 30
2 4 30
2 5 20
3 4 40
3 5 30
4 5 10
4 6 40
5 6 20
4 6
1 2 30
1 4 4 
1 3 6
2 3 5
2 4 10
3 4 20
6 11
1 2 40
1 3 20
1 6 50
2 3 30
2 4 30
2 5 20
3 4 40
3 5 30
4 5 10
4 6 40
5 6 20
4 6
1 2 30
1 4 4 
1 3 6
2 3 5
2 4 10
3 4 20
6 11
1 2 40
1 3 20
1 6 50
2 3 30
2 4 30
2 5 20
3 4 40
3 5 30
4 5 10
4 6 40
5 6 20
4 6
1 2 30
1 4 4 
1 3 6
2 3 5
2 4 10
3 4 20
6 11
1 2 40
1 3 20
1 6 50
2 3 30
2 4 30
2 5 20
3 4 40
3 5 30
4 5 10
4 6 40
5 6 20
4 6
1 2 30
1 4 4 
1 3 6
2 3 5
2 4 10
3 4 20
6 11
1 2 40
1 3 20
1 6 50
2 3 30
2 4 30
2 5 20
3 4 40
3 5 30
4 5 10
4 6 40
5 6 20
4 6
1 2 30
1 4 4 
1 3 6
2 3 5
2 4 10
3 4 20
6 11
1 2 40
1 3 20
1 6 50
2 3 30
2 4 30
2 5 20
3 4 40
3 5 30
4 5 10
4 6 40
5 6 20

4 6
1 2 30
1 4 4 
1 3 6
2 3 5
2 4 10
3 4 20
6 11
1 2 40
1 3 20
1 6 50
2 3 30
2 4 30
2 5 20
3 4 40
3 5 30
4 5 10
4 6 40
5 6 20
4 6
1 2 30
1 4 4 
1 3 6
2 3 5
2 4 10
3 4 20
6 11
1 2 40
1 3 20
1 6 50
2 3 30
2 4 30
2 5 20
3 4 40
3 5 30
4 5 10
4 6 40
5 6 20
4 6
1 2 30
1 4 4 
1 3 6
2 3 5
2 4 10
3 4 20
6 11
1 2 40
1 3 20
1 6 50
2 3 30
2 4 30
2 5 20
3 4 40
3 5 30
4 5 10
4 6 40
5 6 20
4 6
1 2 30
1 4 4 
1 3 6
2 3 5
2 4 10
3 4 20
6 11
1 2 40
1 3 20
1 6 50
2 3 30
2 4 30
2 5 20
3 4 40
3 5 30
4 5 10
4 6 40
5 6 20
4 6
1 2 30
1 4 4 
1 3 6
2 3 5
2 4 10
3 4 20
6 11
1 2 40
1 3 20
1 6 50
2 3 30
2 4 30
2 5 20
3 4 40
3 5 30
4 5 10
4 6 40
5 6 20
4 6
1 2 30
1 4 4 
1 3 6
2 3 5
2 4 10
3 4 20
6 11
1 2 40
1 3 20
1 6 50
2 3 30
2 4 30
2 5 20
3 4 40
3 5 30
4 5 10
4 6 40
5 6 20

4 6
1 2 30
1 4 4 
1 3 6
2 3 5
2 4 10
3 4 20
6 11
1 2 40
1 3 20
1 6 50
2 3 30
2 4 30
2 5 20
3 4 40
3 5 30
4 5 10
4 6 40
5 6 20
4 6
1 2 30
1 4 4 
1 3 6
2 3 5
2 4 10
3 4 20
6 11
1 2 40
1 3 20
1 6 50
2 3 30
2 4 30
2 5 20
3 4 40
3 5 30
4 5 10
4 6 40
5 6 20
4 6
1 2 30
1 4 4 
1 3 6
2 3 5
2 4 10
3 4 20
6 11
1 2 40
1 3 20
1 6 50
2 3 30
2 4 30
2 5 20
3 4 40
3 5 30
4 5 10
4 6 40
5 6 20
4 6
1 2 30
1 4 4 
1 3 6
2 3 5
2 4 10
3 4 20
6 11
1 2 40
1 3 20
1 6 50
2 3 30
2 4 30
2 5 20
3 4 40
3 5 30
4 5 10
4 6 40
5 6 20
4 6
1 2 30
1 4 4 
1 3 6
2 3 5
2 4 10
3 4 20
6 11
1 2 40
1 3 20
1 6 50
2 3 30
2 4 30
2 5 20
3 4 40
3 5 30
4 5 10
4 6 40
5 6 20
4 6
1 2 30
1 4 4 
1 3 6
2 3 5
2 4 10
3 4 20
6 11
1 2 40
1 3 20
1 6 50
2 3 30
2 4 30
2 5 20
3 4 40
3 5 30
4 5 10
4 6 40
5 6 20

4 6
1 2 30
1 4 4 
1 3 6
2 3 5
2 4 10
3 4 20
6 11
1 2 40
1 3 20
1 6 50
2 3 30
2 4 30
2 5 20
3 4 40
3 5 30
4 5 10
4 6 40
5 6 20
4 6
1 2 30
1 4 4 
1 3 6
2 3 5
2 4 10
3 4 20
6 11
1 2 40
1 3 20
1 6 50
2 3 30
2 4 30
2 5 20
3 4 40
3 5 30
4 5 10
4 6 40
5 6 20
4 6
1 2 30
1 4 4 
1 3 6
2 3 5
2 4 10
3 4 20
6 11
1 2 40
1 3 20
1 6 50
2 3 30
2 4 30
2 5 20
3 4 40
3 5 30
4 5 10
4 6 40
5 6 20
4 6
1 2 30
1 4 4 
1 3 6
2 3 5
2 4 10
3 4 20
6 11
1 2 40
1 3 20
1 6 50
2 3 30
2 4 30
2 5 20
3 4 40
3 5 30
4 5 10
4 6 40
5 6 20
4 6
1 2 30
1 4 4 
1 3 6
2 3 5
2 4 10
3 4 20
6 11
1 2 40
1 3 20
1 6 50
2 3 30
2 4 30
2 5 20
3 4 40
3 5 30
4 5 10
4 6 40
5 6 20
4 6
1 2 30
1 4 4 
1 3 6
2 3 5
2 4 10
3 4 20
6 11
1 2 40
1 3 20
1 6 50
2 3 30
2 4 30
2 5 20
3 4 40
3 5 30
4 5 10
4 6 40
5 6 20

4 6
1 2 30
1 4 4 
1 3 6
2 3 5
2 4 10
3 4 20
6 11
1 2 40
1 3 20
1 6 50
2 3 30
2 4 30
2 5 20
3 4 40
3 5 30
4 5 10
4 6 40
5 6 20
4 6
1 2 30
1 4 4 
1 3 6
2 3 5
2 4 10
3 4 20
6 11
1 2 40
1 3 20
1 6 50
2 3 30
2 4 30
2 5 20
3 4 40
3 5 30
4 5 10
4 6 40
5 6 20
4 6
1 2 30
1 4 4 
1 3 6
2 3 5
2 4 10
3 4 20
6 11
1 2 40
1 3 20
1 6 50
2 3 30
2 4 30
2 5 20
3 4 40
3 5 30
4 5 10
4 6 40
5 6 20
4 6
1 2 30
1 4 4 
1 3 6
2 3 5
2 4 10
3 4 20
6 11
1 2 40
1 3 20
1 6 50
2 3 30
2 4 30
2 5 20
3 4 40
3 5 30
4 5 10
4 6 40
5 6 20
4 6
1 2 30
1 4 4 
1 3 6
2 3 5
2 4 10
3 4 20
6 11
1 2 40
1 3 20
1 6 50
2 3 30
2 4 30
2 5 20
3 4 40
3 5 30
4 5 10
4 6 40
5 6 20
4 6
1 2 30
1 4 4 
1 3 6
2 3 5
2 4 10
3 4 20
6 11
1 2 40
1 3 20
1 6 50
2 3 30
2 4 30
2 5 20
3 4 40
3 5 30
4 5 10
4 6 40
5 6 20

4 6
1 2 30
1 4 4 
1 3 6
2 3 5
2 4 10
3 4 20
6 11
1 2 40
1 3 20
1 6 50
2 3 30
2 4 30
2 5 20
3 4 40
3 5 30
4 5 10
4 6 40
5 6 20
4 6
1 2 30
1 4 4 
1 3 6
2 3 5
2 4 10
3 4 20
6 11
1 2 40
1 3 20
1 6 50
2 3 30
2 4 30
2 5 20
3 4 40
3 5 30
4 5 10
4 6 40
5 6 20
4 6
1 2 30
1 4 4 
1 3 6
2 3 5
2 4 10
3 4 20
6 11
1 2 40
1 3 20
1 6 50
2 3 30
2 4 30
2 5 20
3 4 40
3 5 30
4 5 10
4 6 40
5 6 20
4 6
1 2 30
1 4 4 
1 3 6
2 3 5
2 4 10
3 4 20
6 11
1 2 40
1 3 20
1 6 50
2 3 30
2 4 30
2 5 20
3 4 40
3 5 30
4 5 10
4 6 40
5 6 20
4 6
1 2 30
1 4 4 
1 3 6
2 3 5
2 4 10
3 4 20
6 11
1 2 40
1 3 20
1 6 50
2 3 30
2 4 30
2 5 20
3 4 40
3 5 30
4 5 10
4 6 40
5 6 20
4 6
1 2 30
1 4 4 
1 3 6
2 3 5
2 4 10
3 4 20
6 11
1 2 40
1 3 20
1 6 50
2 3 30
2 4 30
2 5 20
3 4 40
3 5 30
4 5 10
4 6 40
5 6 20

4 6
1 2 30
1 4 4 
1 3 6
2 3 5
2 4 10
3 4 20
6 11
1 2 40
1 3 20
1 6 50
2 3 30
2 4 30
2 5 20
3 4 40
3 5 30
4 5 10
4 6 40
5 6 20
4 6
1 2 30
1 4 4 
1 3 6
2 3 5
2 4 10
3 4 20
6 11
1 2 40
1 3 20
1 6 50
2 3 30
2 4 30
2 5 20
3 4 40
3 5 30
4 5 10
4 6 40
5 6 20
4 6
1 2 30
1 4 4 
1 3 6
2 3 5
2 4 10
3 4 20
6 11
1 2 40
1 3 20
1 6 50
2 3 30
2 4 30
2 5 20
3 4 40
3 5 30
4 5 10
4 6 40
5 6 20
4 6
1 2 30
1 4 4 
1 3 6
2 3 5
2 4 10
3 4 20
6 11
1 2 40
1 3 20
1 6 50
2 3 30
2 4 30
2 5 20
3 4 40
3 5 30
4 5 10
4 6 40
5 6 20
4 6
1 2 30
1 4 4 
1 3 6
2 3 5
2 4 10
3 4 20
6 11
1 2 40
1 3 20
1 6 50
2 3 30
2 4 30
2 5 20
3 4 40
3 5 30
4 5 10
4 6 40
5 6 20
4 6
1 2 30
1 4 4 
1 3 6
2 3 5
2 4 10
3 4 20
6 11
1 2 40
1 3 20
1 6 50
2 3 30
2 4 30
2 5 20
3 4 40
3 5 30
4 5 10
4 6 40
5 6 20
